     Program PWSCF v.6.7MaX starts on  9Nov2021 at 16:52:17

     K-points division:     npool     =       8
     R & G space division:  proc/nbgrp/npool/nimage =       7
     Waiting for input...
     Reading input from standard input

     Current dimensions of program PWSCF are:
     Max number of different atomic species (ntypx) = 10
     Max number of k-points (npk) =  40000
     Max angular momentum in pseudopotentials (lmaxx) =  3

     Message from routine setup:
     using ibrav=0 with symmetry is DISCOURAGED, use correct ibrav instead

     bravais-lattice index     =            0
     lattice parameter (alat)  =       7.4893  a.u.
     unit-cell volume          =     297.0321 (a.u.)^3
     number of atoms/cell      =            2
     number of atomic types    =            2
     number of electrons       =         8.00
     number of Kohn-Sham states=           18
     kinetic-energy cutoff     =      70.0000  Ry
     charge density cutoff     =     280.0000  Ry
     scf convergence threshold =      1.0E-08
     mixing beta               =       0.7000
     number of iterations used =            8  plain     mixing
     Exchange-correlation=  SLA  PZ   NOGX NOGC
                           (   1   1   0   0   0   0   0)

     celldm(1)=   7.489269  celldm(2)=   0.000000  celldm(3)=   0.000000
     celldm(4)=   0.000000  celldm(5)=   0.000000  celldm(6)=   0.000000

     crystal axes: (cart. coord. in units of alat)
               a(1) = (   0.000000   0.707107   0.707107 )
               a(2) = (   0.707107   0.000000   0.707107 )
               a(3) = (   0.707107   0.707107  -0.000000 )

     reciprocal axes: (cart. coord. in units 2 pi/alat)
               b(1) = ( -0.707107  0.707107  0.707107 )
               b(2) = (  0.707107 -0.707107  0.707107 )
               b(3) = (  0.707107  0.707107 -0.707107 )

     PseudoPot. # 1 for As read from file:
     PPs/As.pz-bhs.UPF
     MD5 check sum: 451cd3365afcfc94d28b1934951c34a8
     Pseudo is Norm-conserving, Zval =  5.0
     Generated by new atomic code, or converted to UPF format
     Using radial grid of  525 points,  2 beta functions with:
                l(1) =   0
                l(2) =   1

     PseudoPot. # 2 for Ga read from file:
     PPs/Ga_hamlu.fhi.UPF
     MD5 check sum: 4ad1663a8a964d7f0e56f5e6e9567420
     Pseudo is Norm-conserving + core correction, Zval =  3.0
     Generated by new atomic code, or converted to UPF format
     Using radial grid of  529 points,  2 beta functions with:
                l(1) =   1
                l(2) =   2

     atomic species   valence    mass     pseudopotential
        As             5.00    74.92160     As( 1.00)
        Ga             3.00    69.72300     Ga( 1.00)

     24 Sym. Ops. (no inversion) found

                                    s                        frac. trans.

      isym =  1     identity

 cryst.   s( 1) = (     1          0          0      )
                  (     0          1          0      )
                  (     0          0          1      )

 cart.    s( 1) = (  1.0000000 -0.0000000  0.0000000 )
                  ( -0.0000000  1.0000000  0.0000000 )
                  ( -0.0000000  0.0000000  1.0000000 )

      isym =  2     180 deg rotation - cart. axis [0,0,1]

[...]

 cryst.   s( 9) = (     0          1          0      )
                  (     0          0          1      )
                  (     1          0          0      )

 cart.    s( 9) = ( -0.0000000  0.0000000  1.0000000 )
                  (  1.0000000  0.0000000 -0.0000000 )
                  (  0.0000000  1.0000000 -0.0000000 )

[...]

 cryst.   s(10) = (    -1          0          1      )
                  (    -1          1          0      )
                  (    -1          0          0      )

 cart.    s(10) = (  0.0000000 -0.0000000  1.0000000 )
                  ( -1.0000000 -0.0000000 -0.0000000 )
                  ( -0.0000000 -1.0000000 -0.0000000 )

[...]

      isym = 12     120 deg rotation - cart. axis [-1,-1,1]

[...]

      isym = 13     inv. 180 deg rotation - cart. axis [1,1,0]

[...]

      isym = 24     inv.  90 deg rotation - cart. axis [1,0,0]

 cryst.   s(24) = (     0         -1          1      )
                  (     1         -1          0      )
                  (     0         -1          0      )

 cart.    s(24) = ( -1.0000000 -0.0000000 -0.0000000 )
                  (  0.0000000 -0.0000000  1.0000000 )
                  (  0.0000000 -1.0000000  0.0000000 )

   Cartesian axes

     site n.     atom                  positions (alat units)
         1           Ga  tau(   1) = (  -0.0000000   0.0000000   0.0000000  )
         2           As  tau(   2) = (   0.3535534   1.0606602   1.0606602  )

   Crystallographic axes

     site n.     atom                  positions (cryst. coord.)
         1           Ga  tau(   1) = (  0.0000000  0.0000000  0.0000000  )
         2           As  tau(   2) = (  1.2500000  0.2500000  0.2500000  )

     number of k points=    60
                       cart. coord. in units 2pi/alat
        k(    1) = (   0.0441942   0.0441942   0.0441942), wk =   0.0078125
        k(    2) = (   0.1325825   0.1325825  -0.0441942), wk =   0.0234375
        k(    3) = (   0.2209709   0.2209709  -0.1325825), wk =   0.0234375
        k(    4) = (   0.3093592   0.3093592  -0.2209709), wk =   0.0234375
        k(    5) = (  -0.3093592  -0.3093592   0.3977476), wk =   0.0234375
        k(    6) = (  -0.2209709  -0.2209709   0.3093592), wk =   0.0234375
        k(    7) = (  -0.1325825  -0.1325825   0.2209709), wk =   0.0234375
        k(    8) = (  -0.0441942  -0.0441942   0.1325825), wk =   0.0234375
        k(    9) = (   0.2209709   0.0441942   0.0441942), wk =   0.0234375
        k(   10) = (   0.3093592   0.1325825  -0.0441942), wk =   0.0468750
        k(   11) = (   0.3977476   0.2209709  -0.1325825), wk =   0.0468750
        k(   12) = (  -0.2209709  -0.3977476   0.4861359), wk =   0.0468750
        k(   13) = (  -0.1325825  -0.3093592   0.3977476), wk =   0.0468750
        k(   14) = (  -0.0441942  -0.2209709   0.3093592), wk =   0.0468750
        k(   15) = (   0.0441942  -0.1325825   0.2209709), wk =   0.0468750
        k(   16) = (   0.3977476   0.0441942   0.0441942), wk =   0.0234375
        k(   17) = (   0.4861359   0.1325825  -0.0441942), wk =   0.0468750
        k(   18) = (  -0.1325825  -0.4861359   0.5745243), wk =   0.0468750
        k(   19) = (  -0.0441942  -0.3977476   0.4861359), wk =   0.0468750
        k(   20) = (   0.0441942  -0.3093592   0.3977476), wk =   0.0468750
        k(   21) = (   0.1325825  -0.2209709   0.3093592), wk =   0.0468750
        k(   22) = (   0.5745243   0.0441942   0.0441942), wk =   0.0234375
        k(   23) = (  -0.0441942  -0.5745243   0.6629126), wk =   0.0468750
        k(   24) = (   0.0441942  -0.4861359   0.5745243), wk =   0.0468750
        k(   25) = (   0.1325825  -0.3977476   0.4861359), wk =   0.0468750
        k(   26) = (   0.2209709  -0.3093592   0.3977476), wk =   0.0468750
        k(   27) = (  -0.6629126   0.0441942   0.0441942), wk =   0.0234375
        k(   28) = (  -0.5745243   0.1325825  -0.0441942), wk =   0.0468750
        k(   29) = (  -0.4861359   0.2209709  -0.1325825), wk =   0.0468750
        k(   30) = (  -0.4861359   0.0441942   0.0441942), wk =   0.0234375
        k(   31) = (  -0.3977476   0.1325825  -0.0441942), wk =   0.0468750
        k(   32) = (  -0.3093592   0.0441942   0.0441942), wk =   0.0234375
        k(   33) = (   0.1325825   0.1325825   0.1325825), wk =   0.0078125
        k(   34) = (   0.2209709   0.2209709   0.0441942), wk =   0.0234375
        k(   35) = (   0.3093592   0.3093592  -0.0441942), wk =   0.0234375
        k(   36) = (  -0.3093592  -0.3093592   0.5745243), wk =   0.0234375
        k(   37) = (  -0.2209709  -0.2209709   0.4861359), wk =   0.0234375
        k(   38) = (  -0.1325825  -0.1325825   0.3977476), wk =   0.0234375
        k(   39) = (   0.3093592   0.1325825   0.1325825), wk =   0.0234375
        k(   40) = (   0.3977476   0.2209709   0.0441942), wk =   0.0468750
        k(   41) = (  -0.2209709  -0.3977476   0.6629126), wk =   0.0468750
        k(   42) = (  -0.1325825  -0.3093592   0.5745243), wk =   0.0468750
        k(   43) = (  -0.0441942  -0.2209709   0.4861359), wk =   0.0468750
        k(   44) = (   0.4861359   0.1325825   0.1325825), wk =   0.0234375
        k(   45) = (  -0.1325825  -0.4861359   0.7513010), wk =   0.0468750
        k(   46) = (  -0.0441942  -0.3977476   0.6629126), wk =   0.0468750
        k(   47) = (   0.0441942  -0.3093592   0.5745243), wk =   0.0468750
        k(   48) = (  -0.7513010   0.1325825   0.1325825), wk =   0.0234375
        k(   49) = (  -0.6629126   0.2209709   0.0441942), wk =   0.0468750
        k(   50) = (  -0.5745243   0.1325825   0.1325825), wk =   0.0234375
        k(   51) = (   0.2209709   0.2209709   0.2209709), wk =   0.0078125
        k(   52) = (   0.3093592   0.3093592   0.1325825), wk =   0.0234375
        k(   53) = (  -0.3093592  -0.3093592   0.7513010), wk =   0.0234375
        k(   54) = (  -0.2209709  -0.2209709   0.6629126), wk =   0.0234375
        k(   55) = (   0.3977476   0.2209709   0.2209709), wk =   0.0234375
        k(   56) = (  -0.2209709  -0.3977476   0.8396893), wk =   0.0468750
        k(   57) = (  -0.1325825  -0.3093592   0.7513010), wk =   0.0468750
        k(   58) = (  -0.8396893   0.2209709   0.2209709), wk =   0.0234375
        k(   59) = (   0.3093592   0.3093592   0.3093592), wk =   0.0078125
        k(   60) = (  -0.3093592  -0.3093592   0.9280777), wk =   0.0234375

                       cryst. coord.
        k(    1) = (   0.0625000   0.0625000   0.0625000), wk =   0.0078125
        k(    2) = (   0.0625000   0.0625000   0.1875000), wk =   0.0234375
        k(    3) = (   0.0625000   0.0625000   0.3125000), wk =   0.0234375
        k(    4) = (   0.0625000   0.0625000   0.4375000), wk =   0.0234375
        k(    5) = (   0.0625000   0.0625000  -0.4375000), wk =   0.0234375
        k(    6) = (   0.0625000   0.0625000  -0.3125000), wk =   0.0234375
        k(    7) = (   0.0625000   0.0625000  -0.1875000), wk =   0.0234375
        k(    8) = (   0.0625000   0.0625000  -0.0625000), wk =   0.0234375
        k(    9) = (   0.0625000   0.1875000   0.1875000), wk =   0.0234375
        k(   10) = (   0.0625000   0.1875000   0.3125000), wk =   0.0468750
        k(   11) = (   0.0625000   0.1875000   0.4375000), wk =   0.0468750
        k(   12) = (   0.0625000   0.1875000  -0.4375000), wk =   0.0468750
        k(   13) = (   0.0625000   0.1875000  -0.3125000), wk =   0.0468750
        k(   14) = (   0.0625000   0.1875000  -0.1875000), wk =   0.0468750
        k(   15) = (   0.0625000   0.1875000  -0.0625000), wk =   0.0468750
        k(   16) = (   0.0625000   0.3125000   0.3125000), wk =   0.0234375
        k(   17) = (   0.0625000   0.3125000   0.4375000), wk =   0.0468750
        k(   18) = (   0.0625000   0.3125000  -0.4375000), wk =   0.0468750
        k(   19) = (   0.0625000   0.3125000  -0.3125000), wk =   0.0468750
        k(   20) = (   0.0625000   0.3125000  -0.1875000), wk =   0.0468750
        k(   21) = (   0.0625000   0.3125000  -0.0625000), wk =   0.0468750
        k(   22) = (   0.0625000   0.4375000   0.4375000), wk =   0.0234375
        k(   23) = (   0.0625000   0.4375000  -0.4375000), wk =   0.0468750
        k(   24) = (   0.0625000   0.4375000  -0.3125000), wk =   0.0468750
        k(   25) = (   0.0625000   0.4375000  -0.1875000), wk =   0.0468750
        k(   26) = (   0.0625000   0.4375000  -0.0625000), wk =   0.0468750
        k(   27) = (   0.0625000  -0.4375000  -0.4375000), wk =   0.0234375
        k(   28) = (   0.0625000  -0.4375000  -0.3125000), wk =   0.0468750
        k(   29) = (   0.0625000  -0.4375000  -0.1875000), wk =   0.0468750
        k(   30) = (   0.0625000  -0.3125000  -0.3125000), wk =   0.0234375
        k(   31) = (   0.0625000  -0.3125000  -0.1875000), wk =   0.0468750
        k(   32) = (   0.0625000  -0.1875000  -0.1875000), wk =   0.0234375
        k(   33) = (   0.1875000   0.1875000   0.1875000), wk =   0.0078125
        k(   34) = (   0.1875000   0.1875000   0.3125000), wk =   0.0234375
        k(   35) = (   0.1875000   0.1875000   0.4375000), wk =   0.0234375
        k(   36) = (   0.1875000   0.1875000  -0.4375000), wk =   0.0234375
        k(   37) = (   0.1875000   0.1875000  -0.3125000), wk =   0.0234375
        k(   38) = (   0.1875000   0.1875000  -0.1875000), wk =   0.0234375
        k(   39) = (   0.1875000   0.3125000   0.3125000), wk =   0.0234375
        k(   40) = (   0.1875000   0.3125000   0.4375000), wk =   0.0468750
        k(   41) = (   0.1875000   0.3125000  -0.4375000), wk =   0.0468750
        k(   42) = (   0.1875000   0.3125000  -0.3125000), wk =   0.0468750
        k(   43) = (   0.1875000   0.3125000  -0.1875000), wk =   0.0468750
        k(   44) = (   0.1875000   0.4375000   0.4375000), wk =   0.0234375
        k(   45) = (   0.1875000   0.4375000  -0.4375000), wk =   0.0468750
        k(   46) = (   0.1875000   0.4375000  -0.3125000), wk =   0.0468750
        k(   47) = (   0.1875000   0.4375000  -0.1875000), wk =   0.0468750
        k(   48) = (   0.1875000  -0.4375000  -0.4375000), wk =   0.0234375
        k(   49) = (   0.1875000  -0.4375000  -0.3125000), wk =   0.0468750
        k(   50) = (   0.1875000  -0.3125000  -0.3125000), wk =   0.0234375
        k(   51) = (   0.3125000   0.3125000   0.3125000), wk =   0.0078125
        k(   52) = (   0.3125000   0.3125000   0.4375000), wk =   0.0234375
        k(   53) = (   0.3125000   0.3125000  -0.4375000), wk =   0.0234375
        k(   54) = (   0.3125000   0.3125000  -0.3125000), wk =   0.0234375
        k(   55) = (   0.3125000   0.4375000   0.4375000), wk =   0.0234375
        k(   56) = (   0.3125000   0.4375000  -0.4375000), wk =   0.0468750
        k(   57) = (   0.3125000   0.4375000  -0.3125000), wk =   0.0468750
        k(   58) = (   0.3125000  -0.4375000  -0.4375000), wk =   0.0234375
        k(   59) = (   0.4375000   0.4375000   0.4375000), wk =   0.0078125
        k(   60) = (   0.4375000   0.4375000  -0.4375000), wk =   0.0234375

     Initial potential from superposition of free atoms

     starting charge    7.99971, renormalised to    8.00000
     Starting wfcs are   13 randomized atomic wfcs +    5 random wfcs

     Self-consistent Calculation

     iteration #  1     ecut=    70.00 Ry     beta= 0.70
     Davidson diagonalization with overlap
     ethr =  1.00E-02,  avg # of iterations =  7.1

     total energy              =     -24.62457531 Ry
     estimated scf accuracy    <       0.10138390 Ry

[...]

     total energy              =     -24.65335061 Ry
     estimated scf accuracy    <       0.00000002 Ry

     iteration #  6     ecut=    70.00 Ry     beta= 0.70
     Davidson diagonalization with overlap
     ethr =  2.36E-10,  avg # of iterations =  7.3

     End of self-consistent calculation

          k = 0.0442 0.0442 0.0442 (  2918 PWs)   bands (ev):

    -7.8122   4.2004   4.9334   4.9334   6.3855   8.8488   8.8766   8.8766
    12.9204  14.8819  14.8819  16.4211  17.2449  17.2449  19.9995  28.6694
    29.0627  29.0627

     occupation numbers
     1.0000   1.0000   1.0000   1.0000   0.0000   0.0000   0.0000   0.0000
     0.0000   0.0000   0.0000   0.0000   0.0000   0.0000   0.0000   0.0000
     0.0000   0.0000

[...]

          k =-0.3094-0.3094 0.3977 (  2936 PWs)   bands (ev):

[...]

          k = 0.3094 0.3094 0.3094 (  2929 PWs)   bands (ev):

[...]

          k =-0.3094-0.3094 0.9281 (  2938 PWs)   bands (ev):

    -6.0671  -1.6617   2.6468   3.6431   7.1564   9.4092  10.1966  13.1008
    14.8412  15.9343  16.1876  18.4484  19.7602  20.3116  24.0258  26.1546
    27.0356  27.2247

     occupation numbers
     1.0000   1.0000   1.0000   1.0000   0.0000   0.0000   0.0000   0.0000
     0.0000   0.0000   0.0000   0.0000   0.0000   0.0000   0.0000   0.0000
     0.0000   0.0000

     highest occupied, lowest unoccupied level (ev):     4.9334    6.1236

!    total energy              =     -24.65335061 Ry
     estimated scf accuracy    <          2.8E-10 Ry

     The total energy is the sum of the following terms:
     one-electron contribution =       3.39336718 Ry
     hartree contribution      =       1.52512738 Ry
     xc contribution           =     -12.58231202 Ry
     ewald contribution        =     -16.98953314 Ry

     convergence has been achieved in   6 iterations

     Writing output data file run_output/GaAs.save/

     General routines

     Parallel routines

   This run was terminated on:  16:52:21   9Nov2021

   JOB DONE.